17	4	3
20	17	18	23	30	32	27	
0	0	0	0	0	3	9	8	1	2	8	3	2	3	4
1	6	7	0	0	9	7	1	10	9	2	3	6	10	11
2	0	6	3	10	7	3	5	6	7	3	3	5	7	17
10	0	1	3	10	5	10	9	9	9	10	3	8	14	17
9	0	3	7	5	5	8	3	1	1	5	3	9	12	17
125	3	6	4	6	6	4	3	3	4	4	1	17
175	0	3	0	3	1	2	1	2	1	9	1	17
75	6	10	4	0	3	7	2	8	3	8	2	13	16
200	0	4	3	4	10	7	8	9	6	6	2	15	17
50	6	4	6	1	8	1	4	1	2	4	1	17
75	4	1	2	8	5	7	8	7	9	1	1	17
25	0	1	1	3	1	10	3	2	1	3	2	15	17
2	8	1	7	4	1	4	10	2	1	3	1	17
9	2	8	1	0	9	10	9	6	9	5	2	15	17
5	6	0	1	6	2	6	5	5	7	6	1	17
2	9	7	5	5	9	1	2	6	8	1	2	17	17
0	0	0	0	0	6	9	1	8	10	1	0
